-259.0 1.0 9.0 3.0 5.0 7.0 10.0 2.0 1.0 5.0 1.0 5.0 5.0 6.0 7.0 8.0 10.0 2.0 10.0 7.0 7.0 7.0 2.0 4.0 10.0 2.0 2.0 1.0 6.0 9.0 1.0 2.0 8.0 9.0 9.0 8.0 10.0 1.0 0.0 2.0 6.0 0.0 5.0 10.0 1.0 2.0 9.0 3.0 10.0 9.0 
1.0 -190.0 2.0 5.0 4.0 2.0 7.0 8.0 9.0 1.0 9.0 3.0 6.0 8.0 8.0 1.0 6.0 4.0 5.0 4.0 1.0 1.0 4.0 5.0 7.0 6.0 5.0 6.0 7.0 6.0 2.0 6.0 10.0 4.0 3.0 8.0 1.0 2.0 4.0 7.0 1.0 1.0 0.0 0.0 0.0 0.0 0.0 0.0 0.0 0.0 
9.0 2.0 -194.0 9.0 2.0 9.0 6.0 4.0 0.0 0.0 0.0 7.0 2.0 1.0 10.0 2.0 4.0 4.0 6.0 7.0 3.0 4.0 1.0 0.0 7.0 2.0 0.0 8.0 2.0 6.0 4.0 5.0 0.0 2.0 6.0 10.0 0.0 5.0 1.0 8.0 0.0 1.0 4.0 5.0 2.0 8.0 9.0 0.0 7.0 0.0 
3.0 5.0 9.0 -254.0 5.0 7.0 8.0 0.0 1.0 4.0 1.0 4.0 0.0 10.0 5.0 2.0 2.0 4.0 6.0 3.0 6.0 8.0 2.0 7.0 10.0 8.0 7.0 7.0 10.0 7.0 10.0 5.0 6.0 0.0 10.0 6.0 2.0 3.0 6.0 3.0 7.0 3.0 1.0 9.0 0.0 6.0 0.0 7.0 10.0 9.0 
5.0 4.0 2.0 5.0 -268.0 7.0 10.0 10.0 3.0 8.0 0.0 6.0 10.0 9.0 7.0 6.0 0.0 1.0 7.0 4.0 9.0 10.0 10.0 5.0 0.0 5.0 2.0 3.0 1.0 2.0 3.0 5.0 6.0 9.0 1.0 10.0 4.0 9.0 9.0 6.0 7.0 7.0 4.0 9.0 8.0 2.0 1.0 9.0 1.0 7.0 
7.0 2.0 9.0 7.0 7.0 -279.0 7.0 6.0 5.0 3.0 10.0 10.0 9.0 6.0 0.0 8.0 6.0 3.0 3.0 1.0 4.0 0.0 3.0 5.0 4.0 10.0 9.0 8.0 4.0 2.0 9.0 7.0 3.0 7.0 6.0 9.0 9.0 0.0 6.0 2.0 9.0 4.0 10.0 5.0 10.0 0.0 5.0 9.0 10.0 1.0 
10.0 7.0 6.0 8.0 10.0 7.0 -300.0 9.0 10.0 3.0 8.0 1.0 8.0 7.0 0.0 5.0 8.0 0.0 0.0 3.0 7.0 4.0 8.0 8.0 9.0 9.0 0.0 10.0 1.0 3.0 6.0 9.0 3.0 9.0 7.0 6.0 5.0 9.0 5.0 2.0 6.0 3.0 10.0 6.0 9.0 6.0 4.0 6.0 10.0 10.0 
2.0 8.0 4.0 0.0 10.0 6.0 9.0 -267.0 3.0 7.0 0.0 9.0 8.0 9.0 10.0 4.0 7.0 10.0 5.0 5.0 1.0 9.0 7.0 3.0 2.0 9.0 1.0 9.0 0.0 5.0 7.0 10.0 5.0 5.0 8.0 7.0 0.0 7.0 3.0 10.0 2.0 4.0 0.0 4.0 5.0 9.0 1.0 8.0 0.0 10.0 
1.0 9.0 0.0 1.0 3.0 5.0 10.0 3.0 -273.0 7.0 8.0 9.0 10.0 7.0 9.0 8.0 7.0 5.0 10.0 8.0 8.0 8.0 6.0 7.0 6.0 6.0 8.0 0.0 6.0 8.0 9.0 3.0 2.0 2.0 4.0 8.0 2.0 5.0 1.0 6.0 3.0 2.0 3.0 8.0 4.0 3.0 9.0 3.0 5.0 8.0 
5.0 1.0 0.0 4.0 8.0 3.0 3.0 7.0 7.0 -255.0 6.0 10.0 0.0 7.0 4.0 4.0 8.0 8.0 7.0 5.0 8.0 7.0 8.0 10.0 2.0 3.0 2.0 2.0 10.0 8.0 9.0 9.0 3.0 0.0 3.0 0.0 5.0 6.0 6.0 0.0 6.0 4.0 8.0 0.0 3.0 8.0 4.0 7.0 8.0 9.0 
1.0 9.0 0.0 1.0 0.0 10.0 8.0 0.0 8.0 6.0 -242.0 4.0 6.0 2.0 1.0 3.0 4.0 7.0 4.0 7.0 6.0 4.0 10.0 1.0 10.0 2.0 0.0 7.0 0.0 10.0 9.0 1.0 8.0 5.0 3.0 7.0 4.0 1.0 9.0 6.0 4.0 10.0 2.0 10.0 9.0 6.0 5.0 2.0 2.0 8.0 
5.0 3.0 7.0 4.0 6.0 10.0 1.0 9.0 9.0 10.0 4.0 -269.0 2.0 10.0 3.0 7.0 8.0 4.0 2.0 8.0 4.0 2.0 4.0 10.0 3.0 1.0 9.0 4.0 9.0 0.0 2.0 8.0 1.0 7.0 10.0 10.0 6.0 3.0 3.0 8.0 1.0 3.0 2.0 6.0 6.0 10.0 8.0 5.0 2.0 10.0 
5.0 6.0 2.0 0.0 10.0 9.0 8.0 8.0 10.0 0.0 6.0 2.0 -259.0 3.0 4.0 5.0 8.0 1.0 7.0 6.0 7.0 8.0 5.0 6.0 3.0 7.0 9.0 3.0 4.0 7.0 7.0 5.0 3.0 10.0 3.0 10.0 9.0 0.0 0.0 1.0 0.0 5.0 6.0 10.0 2.0 8.0 6.0 8.0 6.0 1.0 
6.0 8.0 1.0 10.0 9.0 6.0 7.0 9.0 7.0 7.0 2.0 10.0 3.0 -239.0 9.0 5.0 9.0 3.0 2.0 7.0 0.0 6.0 5.0 2.0 6.0 3.0 1.0 9.0 6.0 9.0 3.0 5.0 1.0 3.0 8.0 0.0 10.0 8.0 2.0 4.0 3.0 3.0 10.0 0.0 2.0 1.0 1.0 7.0 0.0 1.0 
7.0 8.0 10.0 5.0 7.0 0.0 0.0 10.0 9.0 4.0 1.0 3.0 4.0 9.0 -236.0 3.0 10.0 0.0 9.0 6.0 2.0 7.0 9.0 5.0 0.0 4.0 6.0 6.0 4.0 5.0 2.0 5.0 6.0 0.0 2.0 4.0 4.0 7.0 4.0 0.0 4.0 9.0 3.0 6.0 7.0 0.0 7.0 0.0 7.0 6.0 
8.0 1.0 2.0 2.0 6.0 8.0 5.0 4.0 8.0 4.0 3.0 7.0 5.0 5.0 3.0 -230.0 6.0 0.0 3.0 1.0 6.0 7.0 9.0 7.0 10.0 10.0 5.0 2.0 3.0 1.0 3.0 6.0 8.0 0.0 7.0 2.0 3.0 4.0 10.0 3.0 10.0 8.0 0.0 7.0 9.0 4.0 1.0 3.0 1.0 0.0 
10.0 6.0 4.0 2.0 0.0 6.0 8.0 7.0 7.0 8.0 4.0 8.0 8.0 9.0 10.0 6.0 -280.0 3.0 10.0 10.0 2.0 4.0 4.0 7.0 9.0 8.0 2.0 8.0 2.0 6.0 9.0 5.0 10.0 2.0 5.0 1.0 8.0 3.0 6.0 5.0 9.0 4.0 1.0 4.0 8.0 0.0 1.0 7.0 5.0 9.0 
2.0 4.0 4.0 4.0 1.0 3.0 0.0 10.0 5.0 8.0 7.0 4.0 1.0 3.0 0.0 0.0 3.0 -219.0 8.0 7.0 6.0 7.0 7.0 0.0 1.0 0.0 8.0 4.0 9.0 4.0 3.0 4.0 8.0 9.0 3.0 5.0 2.0 1.0 1.0 8.0 0.0 4.0 5.0 8.0 4.0 9.0 1.0 10.0 9.0 5.0 
10.0 5.0 6.0 6.0 7.0 3.0 0.0 5.0 10.0 7.0 4.0 2.0 7.0 2.0 9.0 3.0 10.0 8.0 -269.0 9.0 6.0 3.0 4.0 3.0 9.0 1.0 2.0 7.0 6.0 0.0 1.0 9.0 7.0 9.0 7.0 3.0 2.0 2.0 7.0 9.0 8.0 9.0 6.0 9.0 3.0 4.0 10.0 3.0 7.0 0.0 
7.0 4.0 7.0 3.0 4.0 1.0 3.0 5.0 8.0 5.0 7.0 8.0 6.0 7.0 6.0 1.0 10.0 7.0 9.0 -247.0 6.0 7.0 5.0 2.0 9.0 2.0 1.0 0.0 0.0 8.0 7.0 3.0 4.0 7.0 9.0 1.0 7.0 10.0 0.0 2.0 4.0 9.0 3.0 9.0 0.0 5.0 10.0 0.0 8.0 1.0 
7.0 1.0 3.0 6.0 9.0 4.0 7.0 1.0 8.0 8.0 6.0 4.0 7.0 0.0 2.0 6.0 2.0 6.0 6.0 6.0 -260.0 4.0 8.0 4.0 5.0 7.0 7.0 5.0 6.0 10.0 9.0 5.0 5.0 0.0 3.0 6.0 0.0 5.0 9.0 9.0 1.0 5.0 9.0 5.0 6.0 4.0 8.0 4.0 2.0 10.0 
7.0 1.0 4.0 8.0 10.0 0.0 4.0 9.0 8.0 7.0 4.0 2.0 8.0 6.0 7.0 7.0 4.0 7.0 3.0 7.0 4.0 -240.0 7.0 9.0 4.0 4.0 2.0 5.0 4.0 7.0 9.0 6.0 4.0 3.0 1.0 10.0 6.0 2.0 10.0 3.0 3.0 0.0 5.0 5.0 0.0 0.0 2.0 3.0 0.0 9.0 
2.0 4.0 1.0 2.0 10.0 3.0 8.0 7.0 6.0 8.0 10.0 4.0 5.0 5.0 9.0 9.0 4.0 7.0 4.0 5.0 8.0 7.0 -244.0 4.0 1.0 8.0 1.0 5.0 5.0 6.0 3.0 0.0 7.0 8.0 8.0 2.0 3.0 0.0 9.0 8.0 6.0 0.0 5.0 6.0 4.0 0.0 8.0 1.0 8.0 0.0 
4.0 5.0 0.0 7.0 5.0 5.0 8.0 3.0 7.0 10.0 1.0 10.0 6.0 2.0 5.0 7.0 7.0 0.0 3.0 2.0 4.0 9.0 4.0 -247.0 1.0 7.0 0.0 6.0 5.0 9.0 10.0 5.0 10.0 10.0 8.0 1.0 7.0 7.0 7.0 2.0 1.0 3.0 5.0 0.0 5.0 5.0 10.0 8.0 1.0 0.0 
10.0 7.0 7.0 10.0 0.0 4.0 9.0 2.0 6.0 2.0 10.0 3.0 3.0 6.0 0.0 10.0 9.0 1.0 9.0 9.0 5.0 4.0 1.0 1.0 -239.0 5.0 1.0 3.0 6.0 4.0 0.0 9.0 4.0 0.0 7.0 6.0 5.0 7.0 10.0 4.0 2.0 7.0 7.0 0.0 3.0 6.0 2.0 0.0 6.0 7.0 
2.0 6.0 2.0 8.0 5.0 10.0 9.0 9.0 6.0 3.0 2.0 1.0 7.0 3.0 4.0 10.0 8.0 0.0 1.0 2.0 7.0 4.0 8.0 7.0 5.0 -249.0 8.0 6.0 4.0 2.0 0.0 6.0 0.0 0.0 10.0 6.0 7.0 8.0 8.0 5.0 9.0 1.0 4.0 5.0 2.0 4.0 8.0 10.0 4.0 3.0 
2.0 5.0 0.0 7.0 2.0 9.0 0.0 1.0 8.0 2.0 0.0 9.0 9.0 1.0 6.0 5.0 2.0 8.0 2.0 1.0 7.0 2.0 1.0 0.0 1.0 8.0 -199.0 10.0 0.0 2.0 5.0 0.0 7.0 2.0 0.0 3.0 5.0 3.0 2.0 2.0 6.0 10.0 8.0 2.0 2.0 8.0 3.0 9.0 4.0 8.0 
1.0 6.0 8.0 7.0 3.0 8.0 10.0 9.0 0.0 2.0 7.0 4.0 3.0 9.0 6.0 2.0 8.0 4.0 7.0 0.0 5.0 5.0 5.0 6.0 3.0 6.0 10.0 -251.0 1.0 9.0 10.0 4.0 1.0 4.0 9.0 3.0 1.0 2.0 9.0 2.0 6.0 5.0 3.0 3.0 0.0 7.0 4.0 7.0 10.0 7.0 
6.0 7.0 2.0 10.0 1.0 4.0 1.0 0.0 6.0 10.0 0.0 9.0 4.0 6.0 4.0 3.0 2.0 9.0 6.0 0.0 6.0 4.0 5.0 5.0 6.0 4.0 0.0 1.0 -207.0 7.0 7.0 5.0 1.0 0.0 0.0 3.0 6.0 5.0 0.0 9.0 6.0 3.0 1.0 4.0 7.0 0.0 10.0 6.0 4.0 2.0 
9.0 6.0 6.0 7.0 2.0 2.0 3.0 5.0 8.0 8.0 10.0 0.0 7.0 9.0 5.0 1.0 6.0 4.0 0.0 8.0 10.0 7.0 6.0 9.0 4.0 2.0 2.0 9.0 7.0 -259.0 10.0 4.0 7.0 9.0 8.0 4.0 0.0 10.0 0.0 6.0 3.0 0.0 2.0 10.0 3.0 7.0 0.0 7.0 6.0 1.0 
1.0 2.0 4.0 10.0 3.0 9.0 6.0 7.0 9.0 9.0 9.0 2.0 7.0 3.0 2.0 3.0 9.0 3.0 1.0 7.0 9.0 9.0 3.0 10.0 0.0 0.0 5.0 10.0 7.0 10.0 -275.0 7.0 2.0 8.0 4.0 5.0 10.0 4.0 6.0 6.0 3.0 3.0 3.0 6.0 6.0 9.0 4.0 9.0 8.0 3.0 
2.0 6.0 5.0 5.0 5.0 7.0 9.0 10.0 3.0 9.0 1.0 8.0 5.0 5.0 5.0 6.0 5.0 4.0 9.0 3.0 5.0 6.0 0.0 5.0 9.0 6.0 0.0 4.0 5.0 4.0 7.0 -270.0 7.0 5.0 2.0 9.0 6.0 10.0 3.0 9.0 8.0 8.0 8.0 0.0 8.0 3.0 7.0 1.0 4.0 9.0 
8.0 10.0 0.0 6.0 6.0 3.0 3.0 5.0 2.0 3.0 8.0 1.0 3.0 1.0 6.0 8.0 10.0 8.0 7.0 4.0 5.0 4.0 7.0 10.0 4.0 0.0 7.0 1.0 1.0 7.0 2.0 7.0 -230.0 0.0 3.0 4.0 4.0 2.0 2.0 8.0 9.0 7.0 8.0 3.0 8.0 2.0 5.0 2.0 3.0 3.0 
9.0 4.0 2.0 0.0 9.0 7.0 9.0 5.0 2.0 0.0 5.0 7.0 10.0 3.0 0.0 0.0 2.0 9.0 9.0 7.0 0.0 3.0 8.0 10.0 0.0 0.0 2.0 4.0 0.0 9.0 8.0 5.0 0.0 -235.0 4.0 0.0 9.0 8.0 6.0 2.0 7.0 9.0 6.0 5.0 10.0 4.0 5.0 10.0 2.0 0.0 
9.0 3.0 6.0 10.0 1.0 6.0 7.0 8.0 4.0 3.0 3.0 10.0 3.0 8.0 2.0 7.0 5.0 3.0 7.0 9.0 3.0 1.0 8.0 8.0 7.0 10.0 0.0 9.0 0.0 8.0 4.0 2.0 3.0 4.0 -247.0 5.0 6.0 3.0 4.0 1.0 2.0 9.0 2.0 5.0 10.0 10.0 2.0 2.0 2.0 3.0 
8.0 8.0 10.0 6.0 10.0 9.0 6.0 7.0 8.0 0.0 7.0 10.0 10.0 0.0 4.0 2.0 1.0 5.0 3.0 1.0 6.0 10.0 2.0 1.0 6.0 6.0 3.0 3.0 3.0 4.0 5.0 9.0 4.0 0.0 5.0 -242.0 2.0 4.0 3.0 5.0 8.0 4.0 1.0 3.0 3.0 0.0 7.0 9.0 9.0 2.0 
10.0 1.0 0.0 2.0 4.0 9.0 5.0 0.0 2.0 5.0 4.0 6.0 9.0 10.0 4.0 3.0 8.0 2.0 2.0 7.0 0.0 6.0 3.0 7.0 5.0 7.0 5.0 1.0 6.0 0.0 10.0 6.0 4.0 9.0 6.0 2.0 -227.0 3.0 10.0 9.0 4.0 9.0 1.0 4.0 3.0 1.0 2.0 4.0 3.0 4.0 
1.0 2.0 5.0 3.0 9.0 0.0 9.0 7.0 5.0 6.0 1.0 3.0 0.0 8.0 7.0 4.0 3.0 1.0 2.0 10.0 5.0 2.0 0.0 7.0 7.0 8.0 3.0 2.0 5.0 10.0 4.0 10.0 2.0 8.0 3.0 4.0 3.0 -245.0 6.0 10.0 1.0 9.0 2.0 4.0 4.0 8.0 9.0 3.0 10.0 10.0 
0.0 4.0 1.0 6.0 9.0 6.0 5.0 3.0 1.0 6.0 9.0 3.0 0.0 2.0 4.0 10.0 6.0 1.0 7.0 0.0 9.0 10.0 9.0 7.0 10.0 8.0 2.0 9.0 0.0 0.0 6.0 3.0 2.0 6.0 4.0 3.0 10.0 6.0 -233.0 1.0 4.0 0.0 7.0 10.0 7.0 3.0 1.0 3.0 9.0 1.0 
2.0 7.0 8.0 3.0 6.0 2.0 2.0 10.0 6.0 0.0 6.0 8.0 1.0 4.0 0.0 3.0 5.0 8.0 9.0 2.0 9.0 3.0 8.0 2.0 4.0 5.0 2.0 2.0 9.0 6.0 6.0 9.0 8.0 2.0 1.0 5.0 9.0 10.0 1.0 -244.0 7.0 5.0 3.0 1.0 3.0 10.0 8.0 1.0 9.0 4.0 
6.0 1.0 0.0 7.0 7.0 9.0 6.0 2.0 3.0 6.0 4.0 1.0 0.0 3.0 4.0 10.0 9.0 0.0 8.0 4.0 1.0 3.0 6.0 1.0 2.0 9.0 6.0 6.0 6.0 3.0 3.0 8.0 9.0 7.0 2.0 8.0 4.0 1.0 4.0 7.0 -226.0 0.0 5.0 1.0 7.0 9.0 2.0 5.0 1.0 10.0 
0.0 1.0 1.0 3.0 7.0 4.0 3.0 4.0 2.0 4.0 10.0 3.0 5.0 3.0 9.0 8.0 4.0 4.0 9.0 9.0 5.0 0.0 0.0 3.0 7.0 1.0 10.0 5.0 3.0 0.0 3.0 8.0 7.0 9.0 9.0 4.0 9.0 9.0 0.0 5.0 0.0 -224.0 8.0 2.0 10.0 2.0 4.0 1.0 2.0 5.0 
5.0 0.0 4.0 1.0 4.0 10.0 10.0 0.0 3.0 8.0 2.0 2.0 6.0 10.0 3.0 0.0 1.0 5.0 6.0 3.0 9.0 5.0 5.0 5.0 7.0 4.0 8.0 3.0 1.0 2.0 3.0 8.0 8.0 6.0 2.0 1.0 1.0 2.0 7.0 3.0 5.0 8.0 -230.0 9.0 10.0 6.0 3.0 9.0 1.0 6.0 
10.0 0.0 5.0 9.0 9.0 5.0 6.0 4.0 8.0 0.0 10.0 6.0 10.0 0.0 6.0 7.0 4.0 8.0 9.0 9.0 5.0 5.0 6.0 0.0 0.0 5.0 2.0 3.0 4.0 10.0 6.0 0.0 3.0 5.0 5.0 3.0 4.0 4.0 10.0 1.0 1.0 2.0 9.0 -232.0 3.0 7.0 1.0 0.0 3.0 0.0 
1.0 0.0 2.0 0.0 8.0 10.0 9.0 5.0 4.0 3.0 9.0 6.0 2.0 2.0 7.0 9.0 8.0 4.0 3.0 0.0 6.0 0.0 4.0 5.0 3.0 2.0 2.0 0.0 7.0 3.0 6.0 8.0 8.0 10.0 10.0 3.0 3.0 4.0 7.0 3.0 7.0 10.0 10.0 3.0 -258.0 8.0 7.0 10.0 9.0 8.0 
2.0 0.0 8.0 6.0 2.0 0.0 6.0 9.0 3.0 8.0 6.0 10.0 8.0 1.0 0.0 4.0 0.0 9.0 4.0 5.0 4.0 0.0 0.0 5.0 6.0 4.0 8.0 7.0 0.0 7.0 9.0 3.0 2.0 4.0 10.0 0.0 1.0 8.0 3.0 10.0 9.0 2.0 6.0 7.0 8.0 -237.0 2.0 3.0 8.0 10.0 
9.0 0.0 9.0 0.0 1.0 5.0 4.0 1.0 9.0 4.0 5.0 8.0 6.0 1.0 7.0 1.0 1.0 1.0 10.0 10.0 8.0 2.0 8.0 10.0 2.0 8.0 3.0 4.0 10.0 0.0 4.0 7.0 5.0 5.0 2.0 7.0 2.0 9.0 1.0 8.0 2.0 4.0 3.0 1.0 7.0 2.0 -226.0 2.0 5.0 3.0 
3.0 0.0 0.0 7.0 9.0 9.0 6.0 8.0 3.0 7.0 2.0 5.0 8.0 7.0 0.0 3.0 7.0 10.0 3.0 0.0 4.0 3.0 1.0 8.0 0.0 10.0 9.0 7.0 6.0 7.0 9.0 1.0 2.0 10.0 2.0 9.0 4.0 3.0 3.0 1.0 5.0 1.0 9.0 0.0 10.0 3.0 2.0 -239.0 10.0 3.0 
10.0 0.0 7.0 10.0 1.0 10.0 10.0 0.0 5.0 8.0 2.0 2.0 6.0 0.0 7.0 1.0 5.0 9.0 7.0 8.0 2.0 0.0 8.0 1.0 6.0 4.0 4.0 10.0 4.0 6.0 8.0 4.0 3.0 2.0 2.0 9.0 3.0 10.0 9.0 9.0 1.0 2.0 1.0 3.0 9.0 8.0 5.0 10.0 -256.0 5.0 
9.0 0.0 0.0 9.0 7.0 1.0 10.0 10.0 8.0 9.0 8.0 10.0 1.0 1.0 6.0 0.0 9.0 5.0 0.0 1.0 10.0 9.0 0.0 0.0 7.0 3.0 8.0 7.0 2.0 1.0 3.0 9.0 3.0 0.0 3.0 2.0 4.0 10.0 1.0 4.0 10.0 5.0 6.0 0.0 8.0 10.0 3.0 3.0 5.0 -240.0 

